objective value:                                11726
t_x_1                                               1 	(obj:3)
t_x_4                                               1 	(obj:30)
t_x_7                                               1 	(obj:3)
t_x_9                                               1 	(obj:10)
t_x_11                                              1 	(obj:27)
t_x_12                                              1 	(obj:30)
t_x_15                                              1 	(obj:34)
t_x_17                                              1 	(obj:23)
t_x_22                                              1 	(obj:21)
t_x_24                                              1 	(obj:58)
t_x_31                                              1 	(obj:8)
t_x_33                                              1 	(obj:23)
t_x_36                                              1 	(obj:17)
t_x_38                                              1 	(obj:4)
t_x_43                                              1 	(obj:64)
t_x_45                                              1 	(obj:55)
t_x_51                                              1 	(obj:13)
t_x_52                                              1 	(obj:9)
t_x_54                                              1 	(obj:29)
t_x_55                                              1 	(obj:0)
t_x_58                                              1 	(obj:40)
t_x_59                                              1 	(obj:36)
t_x_61                                              1 	(obj:61)
t_x_65                                              1 	(obj:7)
t_x_68                                              1 	(obj:51)
t_x_69                                              1 	(obj:24)
t_x_72                                              1 	(obj:2)
t_x_73                                              1 	(obj:33)
t_x_76                                              1 	(obj:13)
t_x_78                                              1 	(obj:8)
t_x_79                                              1 	(obj:49)
t_x_80                                              1 	(obj:6)
t_x_81                                              1 	(obj:15)
t_x_82                                              1 	(obj:16)
t_x_83                                              1 	(obj:13)
t_x_86                                              1 	(obj:5)
t_x_88                                              1 	(obj:2)
t_x_89                                              1 	(obj:22)
t_x_93                                              1 	(obj:10)
t_x_101                                             1 	(obj:26)
t_x_103                                             1 	(obj:18)
t_x_107                                             1 	(obj:4)
t_x_108                                             1 	(obj:5)
t_x_110                                             1 	(obj:12)
t_x_116                                             1 	(obj:17)
t_x_117                                             1 	(obj:26)
t_x_121                                             1 	(obj:30)
t_x_123                                             1 	(obj:45)
t_x_126                                             1 	(obj:2)
t_x_131                                             1 	(obj:5)
t_x_135                                             1 	(obj:58)
t_x_138                                             1 	(obj:37)
t_x_141                                             1 	(obj:21)
t_x_142                                             1 	(obj:5)
t_x_143                                             1 	(obj:18)
t_x_145                                             1 	(obj:9)
t_x_152                                             1 	(obj:5)
t_x_154                                             1 	(obj:0)
t_x_158                                             1 	(obj:7)
t_x_160                                             1 	(obj:1)
t_x_161                                             1 	(obj:7)
t_x_179                                             1 	(obj:50)
t_x_181                                             1 	(obj:56)
t_x_182                                             1 	(obj:27)
t_x_185                                             1 	(obj:8)
t_x_187                                             1 	(obj:13)
t_x_190                                             1 	(obj:42)
t_x_193                                             1 	(obj:40)
t_x_196                                             1 	(obj:22)
t_x_199                                             1 	(obj:19)
t_x_203                                             1 	(obj:2)
t_x_205                                             1 	(obj:23)
t_x_207                                             1 	(obj:20)
t_x_219                                             1 	(obj:4)
t_x_224                                             1 	(obj:40)
t_x_225                                             1 	(obj:35)
t_x_231                                             1 	(obj:21)
t_x_236                                             1 	(obj:30)
t_x_237                                             1 	(obj:15)
t_x_239                                             1 	(obj:11)
t_x_240                                             1 	(obj:13)
t_x_241                                             1 	(obj:30)
t_x_245                                             1 	(obj:44)
t_x_246                                             1 	(obj:47)
t_x_248                                             1 	(obj:21)
t_x_252                                             1 	(obj:35)
t_x_254                                             1 	(obj:9)
t_x_260                                             1 	(obj:26)
t_x_263                                             1 	(obj:43)
t_x_265                                             1 	(obj:18)
t_x_266                                             1 	(obj:20)
t_x_269                                             1 	(obj:60)
t_x_275                                             1 	(obj:20)
t_x_277                                             1 	(obj:23)
t_x_279                                             1 	(obj:21)
t_x_282                                             1 	(obj:51)
t_x_284                                             1 	(obj:7)
t_x_285                                             1 	(obj:6)
t_x_287                                             1 	(obj:33)
t_x_291                                             1 	(obj:7)
t_x_294                                             1 	(obj:16)
t_x_300                                             1 	(obj:9)
t_x_301                                             1 	(obj:21)
t_x_302                                             1 	(obj:14)
t_x_309                                             1 	(obj:5)
t_x_319                                             1 	(obj:4)
t_x_322                                             1 	(obj:0)
t_x_324                                             1 	(obj:30)
t_x_332                                             1 	(obj:7)
t_x_333                                             1 	(obj:2)
t_x_337                                             1 	(obj:9)
t_x_341                                             1 	(obj:8)
t_x_343                                             1 	(obj:1)
t_x_344                                             1 	(obj:31)
t_x_345                                             1 	(obj:28)
t_x_350                                             1 	(obj:25)
t_x_351                                             1 	(obj:55)
t_x_353                                             1 	(obj:23)
t_x_357                                             1 	(obj:13)
t_x_360                                             1 	(obj:31)
t_x_362                                             1 	(obj:29)
t_x_363                                             1 	(obj:7)
t_x_365                                             1 	(obj:25)
t_x_366                                             1 	(obj:14)
t_x_367                                             1 	(obj:1)
t_x_368                                             1 	(obj:31)
t_x_369                                             1 	(obj:42)
t_x_380                                             1 	(obj:85)
t_x_381                                             1 	(obj:2)
t_x_382                                             1 	(obj:5)
t_x_385                                             1 	(obj:29)
t_x_386                                             1 	(obj:1)
t_x_387                                             1 	(obj:35)
t_x_390                                             1 	(obj:17)
t_x_393                                             1 	(obj:4)
t_x_394                                             1 	(obj:9)
t_x_396                                             1 	(obj:12)
t_x_398                                             1 	(obj:15)
t_x_401                                             1 	(obj:35)
t_x_402                                             1 	(obj:29)
t_x_404                                             1 	(obj:30)
t_x_405                                             1 	(obj:8)
t_x_406                                             1 	(obj:19)
t_x_416                                             1 	(obj:13)
t_x_431                                             1 	(obj:16)
t_x_433                                             1 	(obj:16)
t_x_434                                             1 	(obj:5)
t_x_435                                             1 	(obj:16)
t_x_440                                             1 	(obj:7)
t_x_444                                             1 	(obj:32)
t_x_450                                             1 	(obj:11)
t_x_453                                             1 	(obj:17)
t_x_454                                             1 	(obj:4)
t_x_455                                             1 	(obj:19)
t_x_456                                             1 	(obj:7)
t_x_457                                             1 	(obj:23)
t_x_460                                             1 	(obj:5)
t_x_462                                             1 	(obj:14)
t_x_466                                             1 	(obj:41)
t_x_469                                             1 	(obj:2)
t_x_482                                             1 	(obj:11)
t_x_483                                             1 	(obj:35)
t_x_486                                             1 	(obj:11)
t_x_490                                             1 	(obj:17)
t_x_491                                             1 	(obj:8)
t_x_493                                             1 	(obj:2)
t_x_494                                             1 	(obj:5)
t_x_496                                             1 	(obj:20)
t_x_499                                             1 	(obj:8)
t_x_501                                             1 	(obj:9)
t_x_502                                             1 	(obj:14)
t_x_504                                             1 	(obj:34)
t_x_508                                             1 	(obj:30)
t_x_510                                             1 	(obj:9)
t_x_512                                             1 	(obj:6)
t_x_521                                             1 	(obj:6)
t_x_525                                             1 	(obj:1)
t_x_526                                             1 	(obj:5)
t_x_528                                             1 	(obj:22)
t_x_531                                             1 	(obj:9)
t_x_533                                             1 	(obj:20)
t_x_536                                             1 	(obj:27)
t_x_540                                             1 	(obj:16)
t_x_543                                             1 	(obj:35)
t_x_544                                             1 	(obj:2)
t_x_550                                             1 	(obj:18)
t_x_554                                             1 	(obj:8)
t_x_556                                             1 	(obj:29)
t_x_570                                             1 	(obj:26)
t_x_573                                             1 	(obj:10)
t_x_574                                             1 	(obj:11)
t_x_577                                             1 	(obj:23)
t_x_579                                             1 	(obj:24)
t_x_581                                             1 	(obj:4)
t_x_594                                             1 	(obj:10)
t_x_595                                             1 	(obj:33)
t_x_603                                             1 	(obj:36)
t_x_604                                             1 	(obj:7)
t_x_608                                             1 	(obj:1)
t_x_611                                             1 	(obj:56)
t_x_618                                             1 	(obj:6)
t_x_626                                             1 	(obj:21)
t_x_628                                             1 	(obj:43)
t_x_630                                             1 	(obj:27)
t_x_631                                             1 	(obj:4)
t_x_634                                             1 	(obj:21)
t_x_642                                             1 	(obj:40)
t_x_644                                             1 	(obj:1)
t_x_645                                             1 	(obj:30)
t_x_646                                             1 	(obj:27)
t_x_650                                             1 	(obj:8)
t_x_653                                             1 	(obj:19)
t_x_654                                             1 	(obj:2)
t_x_655                                             1 	(obj:11)
t_x_659                                             1 	(obj:26)
t_x_666                                             1 	(obj:27)
t_x_671                                             1 	(obj:12)
t_x_676                                             1 	(obj:8)
t_x_685                                             1 	(obj:2)
t_x_689                                             1 	(obj:21)
t_x_693                                             1 	(obj:13)
t_x_694                                             1 	(obj:41)
t_x_695                                             1 	(obj:48)
t_x_700                                             1 	(obj:31)
t_x_703                                             1 	(obj:4)
t_x_704                                             1 	(obj:57)
t_x_706                                             1 	(obj:42)
t_x_708                                             1 	(obj:25)
t_x_712                                             1 	(obj:16)
t_x_719                                             1 	(obj:5)
t_x_720                                             1 	(obj:19)
t_x_734                                             1 	(obj:31)
t_x_739                                             1 	(obj:4)
t_x_740                                             1 	(obj:16)
t_x_741                                             1 	(obj:10)
t_x_742                                             1 	(obj:0)
t_x_743                                             1 	(obj:9)
t_x_745                                             1 	(obj:5)
t_x_750                                             1 	(obj:22)
t_x_751                                             1 	(obj:8)
t_x_753                                             1 	(obj:47)
t_x_754                                             1 	(obj:27)
t_x_758                                             1 	(obj:12)
t_x_759                                             1 	(obj:6)
t_x_762                                             1 	(obj:26)
t_x_765                                             1 	(obj:52)
t_x_767                                             1 	(obj:30)
t_x_769                                             1 	(obj:3)
t_x_771                                             1 	(obj:1)
t_x_779                                             1 	(obj:9)
t_x_783                                             1 	(obj:21)
t_x_784                                             1 	(obj:39)
t_x_785                                             1 	(obj:44)
t_x_787                                             1 	(obj:0)
t_x_788                                             1 	(obj:52)
t_x_789                                             1 	(obj:28)
t_x_796                                             1 	(obj:8)
t_x_798                                             1 	(obj:5)
t_x_803                                             1 	(obj:47)
t_x_808                                             1 	(obj:2)
t_x_809                                             1 	(obj:11)
t_x_818                                             1 	(obj:0)
t_x_822                                             1 	(obj:19)
t_x_824                                             1 	(obj:30)
t_x_825                                             1 	(obj:9)
t_x_833                                             1 	(obj:3)
t_x_834                                             1 	(obj:16)
t_x_835                                             1 	(obj:18)
t_x_836                                             1 	(obj:14)
t_x_841                                             1 	(obj:17)
t_x_844                                             1 	(obj:5)
t_x_846                                             1 	(obj:28)
t_x_847                                             1 	(obj:44)
t_x_849                                             1 	(obj:31)
t_x_854                                             1 	(obj:20)
t_x_856                                             1 	(obj:33)
t_x_865                                             1 	(obj:19)
t_x_871                                             1 	(obj:8)
t_x_873                                             1 	(obj:66)
t_x_879                                             1 	(obj:19)
t_x_883                                             1 	(obj:32)
t_x_884                                             1 	(obj:5)
t_x_886                                             1 	(obj:24)
t_x_891                                             1 	(obj:39)
t_x_897                                             1 	(obj:11)
t_x_902                                             1 	(obj:14)
t_x_903                                             1 	(obj:31)
t_x_904                                             1 	(obj:20)
t_x_906                                             1 	(obj:5)
t_x_910                                             1 	(obj:53)
t_x_915                                             1 	(obj:24)
t_x_918                                             1 	(obj:17)
t_x_922                                             1 	(obj:4)
t_x_924                                             1 	(obj:3)
t_x_925                                             1 	(obj:9)
t_x_929                                             1 	(obj:37)
t_x_939                                             1 	(obj:50)
t_x_944                                             1 	(obj:10)
t_x_945                                             1 	(obj:28)
t_x_946                                             1 	(obj:22)
t_x_948                                             1 	(obj:16)
t_x_949                                             1 	(obj:7)
t_x_951                                             1 	(obj:30)
t_x_953                                             1 	(obj:14)
t_x_954                                             1 	(obj:11)
t_x_956                                             1 	(obj:38)
t_x_959                                             1 	(obj:6)
t_x_960                                             1 	(obj:52)
t_x_961                                             1 	(obj:28)
t_x_963                                             1 	(obj:32)
t_x_964                                             1 	(obj:45)
t_x_967                                             1 	(obj:35)
t_x_971                                             1 	(obj:32)
t_x_972                                             1 	(obj:22)
t_x_973                                             1 	(obj:27)
t_x_975                                             1 	(obj:8)
t_x_980                                             1 	(obj:6)
t_x_983                                             1 	(obj:14)
t_x_984                                             1 	(obj:27)
t_x_990                                             1 	(obj:39)
t_x_991                                             1 	(obj:26)
t_x_992                                             1 	(obj:33)
t_x_998                                             1 	(obj:1)
t_x_1000                                            1 	(obj:8)
t_x_1001                                            1 	(obj:8)
t_x_1003                                            1 	(obj:22)
t_x_1004                                            1 	(obj:25)
t_x_1005                                            1 	(obj:14)
t_x_1012                                            1 	(obj:18)
t_x_1015                                            1 	(obj:0)
t_x_1023                                            1 	(obj:20)
t_x_1025                                            1 	(obj:12)
t_x_1029                                            1 	(obj:19)
t_x_1030                                            1 	(obj:43)
t_x_1033                                            1 	(obj:9)
t_x_1035                                            1 	(obj:18)
t_x_1038                                            1 	(obj:40)
t_x_1041                                            1 	(obj:41)
t_x_1042                                            1 	(obj:38)
t_x_1043                                            1 	(obj:41)
t_x_1047                                            1 	(obj:13)
t_x_1050                                            1 	(obj:5)
t_x_1061                                            1 	(obj:4)
t_x_1068                                            1 	(obj:5)
t_x_1069                                            1 	(obj:43)
t_x_1071                                            1 	(obj:58)
t_x_1072                                            1 	(obj:10)
t_x_1076                                            1 	(obj:21)
t_x_1077                                            1 	(obj:23)
t_x_1090                                            1 	(obj:7)
t_x_1096                                            1 	(obj:13)
t_x_1099                                            1 	(obj:20)
t_x_1101                                            1 	(obj:14)
t_x_1102                                            1 	(obj:33)
t_x_1109                                            1 	(obj:16)
t_x_1110                                            1 	(obj:1)
t_x_1112                                            1 	(obj:18)
t_x_1120                                            1 	(obj:18)
t_x_1126                                            1 	(obj:13)
t_x_1129                                            1 	(obj:19)
t_x_1135                                            1 	(obj:15)
t_x_1137                                            1 	(obj:9)
t_x_1138                                            1 	(obj:36)
t_x_1140                                            1 	(obj:0)
t_x_1148                                            1 	(obj:7)
t_x_1149                                            1 	(obj:11)
t_x_1151                                            1 	(obj:30)
t_x_1155                                            1 	(obj:7)
t_x_1158                                            1 	(obj:66)
t_x_1161                                            1 	(obj:2)
t_x_1163                                            1 	(obj:1)
t_x_1172                                            1 	(obj:8)
t_x_1176                                            1 	(obj:27)
t_x_1178                                            1 	(obj:36)
t_x_1184                                            1 	(obj:11)
t_x_1186                                            1 	(obj:11)
t_x_1187                                            1 	(obj:17)
t_x_1189                                            1 	(obj:28)
t_x_1191                                            1 	(obj:8)
t_x_1193                                            1 	(obj:20)
t_x_1195                                            1 	(obj:20)
t_x_1198                                            1 	(obj:4)
t_x_1201                                            1 	(obj:13)
t_x_1203                                            1 	(obj:11)
t_x_1204                                            1 	(obj:12)
t_x_1206                                            1 	(obj:11)
t_x_1209                                            1 	(obj:25)
t_x_1215                                            1 	(obj:55)
t_x_1225                                            1 	(obj:15)
t_x_1228                                            1 	(obj:16)
t_x_1229                                            1 	(obj:6)
t_x_1231                                            1 	(obj:1)
t_x_1232                                            1 	(obj:6)
t_x_1235                                            1 	(obj:29)
t_x_1257                                            1 	(obj:0)
t_x_1267                                            1 	(obj:18)
t_x_1274                                            1 	(obj:0)
t_x_1275                                            1 	(obj:22)
t_x_1278                                            1 	(obj:35)
t_x_1281                                            1 	(obj:36)
t_x_1287                                            1 	(obj:41)
t_x_1290                                            1 	(obj:49)
t_x_1293                                            1 	(obj:52)
t_x_1303                                            1 	(obj:16)
t_x_1304                                            1 	(obj:11)
t_x_1305                                            1 	(obj:27)
t_x_1306                                            1 	(obj:13)
t_x_1313                                            1 	(obj:30)
t_x_1314                                            1 	(obj:9)
t_x_1318                                            1 	(obj:13)
t_x_1319                                            1 	(obj:41)
t_x_1321                                            1 	(obj:15)
t_x_1322                                            1 	(obj:6)
t_x_1323                                            1 	(obj:25)
t_x_1328                                            1 	(obj:6)
t_x_1331                                            1 	(obj:28)
t_x_1333                                            1 	(obj:17)
t_x_1334                                            1 	(obj:34)
t_x_1336                                            1 	(obj:8)
t_x_1348                                            1 	(obj:48)
t_x_1353                                            1 	(obj:15)
t_x_1355                                            1 	(obj:28)
t_x_1357                                            1 	(obj:28)
t_x_1358                                            1 	(obj:39)
t_x_1360                                            1 	(obj:8)
t_x_1375                                            1 	(obj:11)
t_x_1381                                            1 	(obj:5)
t_x_1382                                            1 	(obj:9)
t_x_1383                                            1 	(obj:8)
t_x_1386                                            1 	(obj:1)
t_x_1391                                            1 	(obj:3)
t_x_1393                                            1 	(obj:4)
t_x_1394                                            1 	(obj:18)
t_x_1395                                            1 	(obj:18)
t_x_1403                                            1 	(obj:8)
t_x_1404                                            1 	(obj:22)
t_x_1410                                            1 	(obj:21)
t_x_1421                                            1 	(obj:19)
t_x_1422                                            1 	(obj:42)
t_x_1423                                            1 	(obj:6)
t_x_1426                                            1 	(obj:9)
t_x_1428                                            1 	(obj:0)
t_x_1429                                            1 	(obj:15)
t_x_1433                                            1 	(obj:28)
t_x_1434                                            1 	(obj:29)
t_x_1435                                            1 	(obj:28)
t_x_1436                                            1 	(obj:14)
t_x_1440                                            1 	(obj:9)
t_x_1445                                            1 	(obj:6)
t_x_1456                                            1 	(obj:4)
t_x_1461                                            1 	(obj:2)
t_x_1462                                            1 	(obj:11)
t_x_1463                                            1 	(obj:35)
t_x_1464                                            1 	(obj:10)
t_x_1465                                            1 	(obj:20)
t_x_1466                                            1 	(obj:5)
t_x_1476                                            1 	(obj:16)
t_x_1477                                            1 	(obj:22)
t_x_1483                                            1 	(obj:17)
t_x_1489                                            1 	(obj:15)
t_x_1493                                            1 	(obj:13)
t_x_1494                                            1 	(obj:10)
t_x_1500                                            1 	(obj:50)
t_x_1502                                            1 	(obj:13)
t_x_1511                                            1 	(obj:44)
t_x_1515                                            1 	(obj:43)
t_x_1519                                            1 	(obj:32)
t_x_1532                                            1 	(obj:46)
t_x_1533                                            1 	(obj:9)
t_x_1538                                            1 	(obj:2)
t_x_1539                                            1 	(obj:11)
t_x_1540                                            1 	(obj:24)
t_x_1551                                            1 	(obj:23)
t_x_1559                                            1 	(obj:37)
t_x_1561                                            1 	(obj:14)
t_x_1564                                            1 	(obj:1)
t_x_1566                                            1 	(obj:14)
t_x_1568                                            1 	(obj:13)
t_x_1578                                            1 	(obj:7)
t_x_1580                                            1 	(obj:3)
t_x_1582                                            1 	(obj:19)
t_x_1589                                            1 	(obj:36)
t_x_1591                                            1 	(obj:9)
t_x_1595                                            1 	(obj:3)
t_x_1596                                            1 	(obj:32)
t_x_1598                                            1 	(obj:10)
t_x_1601                                            1 	(obj:6)
t_x_1602                                            1 	(obj:36)
t_x_1605                                            1 	(obj:4)
t_x_1608                                            1 	(obj:17)
t_x_1612                                            1 	(obj:13)
t_x_1616                                            1 	(obj:7)
t_x_1619                                            1 	(obj:14)
t_x_1631                                            1 	(obj:6)
t_x_1633                                            1 	(obj:29)
t_x_1638                                            1 	(obj:12)
t_x_1641                                            1 	(obj:22)
t_x_1642                                            1 	(obj:1)
t_x_1644                                            1 	(obj:11)
t_x_1646                                            1 	(obj:16)
t_x_1647                                            1 	(obj:7)
t_x_1648                                            1 	(obj:10)
t_x_1649                                            1 	(obj:17)
t_x_1655                                            1 	(obj:8)
t_x_1656                                            1 	(obj:34)
t_x_1664                                            1 	(obj:28)
t_x_1666                                            1 	(obj:12)
t_x_1667                                            1 	(obj:21)
t_x_1668                                            1 	(obj:2)
t_x_1672                                            1 	(obj:13)
t_x_1674                                            1 	(obj:8)
t_x_1677                                            1 	(obj:8)
t_x_1679                                            1 	(obj:57)
t_x_1683                                            1 	(obj:33)
t_x_1687                                            1 	(obj:37)
t_x_1690                                            1 	(obj:7)
t_x_1691                                            1 	(obj:3)
t_x_1693                                            1 	(obj:32)
t_x_1705                                            1 	(obj:19)
t_x_1709                                            1 	(obj:8)
t_x_1710                                            1 	(obj:42)
t_x_1714                                            1 	(obj:0)
t_x_1715                                            1 	(obj:26)
t_x_1721                                            1 	(obj:8)
t_x_1723                                            1 	(obj:3)
t_x_1724                                            1 	(obj:6)
t_x_1725                                            1 	(obj:45)
t_x_1729                                            1 	(obj:53)
t_x_1730                                            1 	(obj:22)
t_x_1736                                            1 	(obj:10)
t_x_1738                                            1 	(obj:32)
t_x_1741                                            1 	(obj:5)
t_x_1743                                            1 	(obj:36)
t_x_1749                                            1 	(obj:39)
t_x_1751                                            1 	(obj:29)
t_x_1757                                            1 	(obj:2)
t_x_1758                                            1 	(obj:25)
t_x_1760                                            1 	(obj:3)
t_x_1762                                            1 	(obj:4)
t_x_1764                                            1 	(obj:1)
t_x_1765                                            1 	(obj:30)
t_x_1770                                            1 	(obj:3)
t_x_1779                                            1 	(obj:1)
t_x_1782                                            1 	(obj:7)
t_x_1784                                            1 	(obj:49)
t_x_1794                                            1 	(obj:3)
t_x_1801                                            1 	(obj:30)
t_x_1805                                            1 	(obj:1)
t_x_1809                                            1 	(obj:21)
t_x_1819                                            1 	(obj:15)
t_x_1820                                            1 	(obj:9)
t_x_1821                                            1 	(obj:17)
t_x_1822                                            1 	(obj:16)
t_x_1824                                            1 	(obj:25)
t_x_1825                                            1 	(obj:22)
t_x_1826                                            1 	(obj:10)
t_x_1827                                            1 	(obj:18)
t_x_1830                                            1 	(obj:37)
t_x_1836                                            1 	(obj:0)
t_x_1840                                            1 	(obj:17)
t_x_1845                                            1 	(obj:9)
t_x_1847                                            1 	(obj:50)
t_x_1848                                            1 	(obj:16)
t_x_1850                                            1 	(obj:2)
t_x_1853                                            1 	(obj:18)
t_x_1855                                            1 	(obj:13)
t_x_1861                                            1 	(obj:11)
t_x_1866                                            1 	(obj:4)
t_x_1869                                            1 	(obj:34)
t_x_1871                                            1 	(obj:2)
t_x_1889                                            1 	(obj:5)
t_x_1892                                            1 	(obj:19)
t_x_1894                                            1 	(obj:22)
t_x_1896                                            1 	(obj:36)
t_x_1899                                            1 	(obj:8)
t_x_1900                                            1 	(obj:18)
t_x_1903                                            1 	(obj:29)
t_x_1904                                            1 	(obj:11)
t_x_1907                                            1 	(obj:34)
t_x_1913                                            1 	(obj:10)
t_x_1917                                            1 	(obj:28)
t_x_1920                                            1 	(obj:36)
t_x_1926                                            1 	(obj:35)
t_x_1932                                            1 	(obj:2)
t_x_1942                                            1 	(obj:27)
t_x_1954                                            1 	(obj:19)
t_x_1957                                            1 	(obj:16)
t_x_1958                                            1 	(obj:19)
t_x_1959                                            1 	(obj:8)
t_x_1960                                            1 	(obj:0)
t_x_1961                                            1 	(obj:14)
t_x_1965                                            1 	(obj:33)
t_x_1969                                            1 	(obj:16)
t_x_1971                                            1 	(obj:9)
t_x_1972                                            1 	(obj:46)
t_x_1973                                            1 	(obj:15)
t_x_1978                                            1 	(obj:36)
t_x_1983                                            1 	(obj:12)
t_x_1985                                            1 	(obj:46)
t_x_1993                                            1 	(obj:0)
t_x_1995                                            1 	(obj:31)
t_x_1999                                            1 	(obj:33)
